NAME: ACTUAL_TOURS/amz1211
TYPE: TOUR
COMMENT: RouteID_8113c559-ad67-46cc-8925-a6b8ba22722d
DIMENSION: 154
TOUR_SECTION
29
5
94
151
69
147
98
112
15
154
118
54
135
103
66
148
95
67
121
13
52
142
108
113
10
138
68
34
75
128
93
86
101
27
18
12
42
106
71
30
44
134
150
78
55
40
6
126
63
122
58
77
22
4
35
137
152
24
19
144
47
96
79
117
62
39
41
88
90
56
136
59
70
116
133
99
127
46
26
124
33
60
130
53
143
125
11
91
74
107
85
9
61
82
97
109
105
49
37
2
132
92
114
81
104
76
110
3
8
65
16
72
45
149
14
111
153
129
146
119
1
64
31
87
28
115
25
21
120
83
50
140
38
51
80
7
43
57
123
100
145
32
89
23
84
139
73
141
17
102
36
131
20
48
-1
EOF
